(set-logic ALL)
(declare-fun parity (Int Int) Bool)
(declare-fun x () Int)
(declare-fun lift_y () Int)
(declare-fun lift_nat_bridge$ (Int) Int)
(declare-fun lift_score$ (Int) Int)
(declare-fun lift_to_int$ (Int) Int)
(assert (forall ((lift_x0 Int) (x1 Int)) (=> (>= lift_x0 0) (=> (parity (lift_to_int$ lift_x0) x1) (and (<= 0 (lift_to_int$ lift_x0)) (or (= x1 0) (= x1 1)))))))
(assert (forall ((x2 Int) (x3 Int) (x4 Int)) (=> (and (parity x2 x3) (parity x2 x4)) (= x3 x4))))
(assert (forall ((lift_x5 Int)) (=> (>= lift_x5 0) (=> (<= 0 (lift_to_int$ lift_x5)) (exists ((x6 Int)) (parity (lift_to_int$ lift_x5) x6))))))
(assert (exists ((x7 Int) (x8 Int)) (and (= x7 0) (= x8 0) (parity x7 x8))))
(assert (forall ((lift_x9 Int)) (=> (>= lift_x9 0) (=> (<= 0 (lift_to_int$ lift_x9)) (exists ((x10 Int) (x11 Int)) (and (= x10 (+ (lift_to_int$ lift_x9) 1)) (forall ((x12 Int)) (=> (parity (lift_to_int$ lift_x9) x12) (= x11 (- 1 x12)))) (parity x10 x11)))))))
(assert (<= 0 (lift_to_int$ lift_y)))
(assert (<= (lift_to_int$ lift_y) x))
(assert (<= x (+ (lift_to_int$ lift_y) 1)))
(assert (exists ((x13 Int)) (and (parity (lift_to_int$ (lift_to_int$ lift_y)) x13) (parity x x13))))
(assert (not (= x (lift_to_int$ lift_y))))
(assert (and (>= (lift_nat_bridge$ (lift_to_int$ lift_y)) 0) (= (lift_score$ (lift_nat_bridge$ (lift_to_int$ lift_y))) (lift_to_int$ lift_y))))
(assert true)
(assert (>= lift_y 0))
(check-sat)
